(set-logic QF_LRA)
(declare-fun act_load_at_depot@1 () Bool)
(declare-fun parameter_load_at_depot_pos@1 () Real)
(declare-fun fluent_robot_at_r0_p0@0 () Bool)
(declare-fun fluent_robot_at_r0_p1@0 () Bool)
(declare-fun fluent_robot_at_r0_p2@0 () Bool)
(declare-fun fluent_robot_at_r0_p3@0 () Bool)
(declare-fun fluent_robot_at_r0_p4@0 () Bool)
(declare-fun fluent_robot_free_r0@0 () Bool)
(declare-fun parameter_load_at_depot_r@1 () Real)
(declare-fun fluent_pallet_at_plt0_p0@0 () Bool)
(declare-fun fluent_pallet_at_plt0_p1@0 () Bool)
(declare-fun fluent_pallet_at_plt0_p2@0 () Bool)
(declare-fun fluent_pallet_at_plt0_p3@0 () Bool)
(declare-fun fluent_pallet_at_plt0_p4@0 () Bool)
(declare-fun fluent_battery_level_r0@0 () Real)
(declare-fun parameter_load_at_depot_pallet@1 () Real)
(declare-fun fluent_position_free_p0@0 () Bool)
(declare-fun fluent_position_free_p1@0 () Bool)
(declare-fun fluent_position_free_p2@0 () Bool)
(declare-fun fluent_position_free_p3@0 () Bool)
(declare-fun fluent_position_free_p4@0 () Bool)
(declare-fun act_unload_at_depot@1 () Bool)
(declare-fun parameter_unload_at_depot_pos@1 () Real)
(declare-fun fluent_robot_has_r0_plt0@0 () Bool)
(declare-fun fluent_ready_plt0_p0_t0@0 () Bool)
(declare-fun fluent_ready_plt0_p1_t0@0 () Bool)
(declare-fun fluent_ready_plt0_p2_t0@0 () Bool)
(declare-fun fluent_ready_plt0_p3_t0@0 () Bool)
(declare-fun fluent_ready_plt0_p4_t0@0 () Bool)
(declare-fun parameter_unload_at_depot_r@1 () Real)
(declare-fun fluent_treated_plt0_t0@0 () Bool)
(declare-fun parameter_unload_at_depot_pallet@1 () Real)
(declare-fun act_move@1 () Bool)
(declare-fun parameter_move_topos@1 () Real)
(declare-fun parameter_move_frompos@1 () Real)
(declare-fun dur_make_treatment@1 () Real)
(declare-fun t@1 () Real)
(declare-fun parameter_move_r@1 () Real)
(declare-fun parameter_make_treatment_t@1 () Real)
(declare-fun parameter_make_treatment_pallet@1 () Real)
(declare-fun parameter_make_treatment_r@1 () Real)
(declare-fun parameter_make_treatment_pos@1 () Real)
(declare-fun fluent_robot_at_r0_p0@1 () Bool)
(declare-fun fluent_robot_at_r0_p1@1 () Bool)
(declare-fun fluent_robot_at_r0_p2@1 () Bool)
(declare-fun fluent_robot_at_r0_p3@1 () Bool)
(declare-fun fluent_robot_at_r0_p4@1 () Bool)
(declare-fun act_make_treatment@1 () Bool)
(declare-fun fluent_battery_level_r0@1 () Real)
(declare-fun act_load@1 () Bool)
(declare-fun parameter_load_t@1 () Real)
(declare-fun parameter_load_pos@1 () Real)
(declare-fun parameter_load_pallet@1 () Real)
(declare-fun parameter_load_r@1 () Real)
(declare-fun fluent_robot_free_r0@1 () Bool)
(declare-fun fluent_ready_plt0_p0_t0@1 () Bool)
(declare-fun fluent_ready_plt0_p1_t0@1 () Bool)
(declare-fun fluent_ready_plt0_p2_t0@1 () Bool)
(declare-fun fluent_ready_plt0_p3_t0@1 () Bool)
(declare-fun fluent_ready_plt0_p4_t0@1 () Bool)
(declare-fun fluent_pallet_at_plt0_p0@1 () Bool)
(declare-fun fluent_pallet_at_plt0_p1@1 () Bool)
(declare-fun fluent_pallet_at_plt0_p2@1 () Bool)
(declare-fun fluent_pallet_at_plt0_p3@1 () Bool)
(declare-fun fluent_pallet_at_plt0_p4@1 () Bool)
(declare-fun fluent_robot_has_r0_plt0@1 () Bool)
(declare-fun fluent_treated_plt0_t0@1 () Bool)
(declare-fun fluent_position_free_p0@1 () Bool)
(declare-fun fluent_position_free_p1@1 () Bool)
(declare-fun fluent_position_free_p2@1 () Bool)
(declare-fun fluent_position_free_p3@1 () Bool)
(declare-fun fluent_position_free_p4@1 () Bool)
(assert (let ((.def_0 (= parameter_make_treatment_pos@1 5.0))) (let ((.def_1 (= parameter_make_treatment_pos@1 4.0))) (let ((.def_2 (= parameter_make_treatment_pos@1 3.0))) (let ((.def_3 (= parameter_make_treatment_pos@1 2.0))) (let ((.def_4 (= parameter_make_treatment_pos@1 1.0))) (let ((.def_5 (or .def_4 .def_3 .def_2 .def_1 .def_0))) (let ((.def_6 (= parameter_make_treatment_r@1 0.0))) (let ((.def_7 (= parameter_make_treatment_pallet@1 6.0))) (let ((.def_8 (= parameter_make_treatment_t@1 7.0))) (let ((.def_9 (= parameter_move_r@1 0.0))) (let ((.def_10 (= parameter_move_frompos@1 5.0))) (let ((.def_11 (= parameter_move_frompos@1 4.0))) (let ((.def_12 (= parameter_move_frompos@1 3.0))) (let ((.def_13 (= parameter_move_frompos@1 2.0))) (let ((.def_14 (= parameter_move_frompos@1 1.0))) (let ((.def_15 (or .def_14 .def_13 .def_12 .def_11 .def_10))) (let ((.def_16 (= parameter_move_topos@1 5.0))) (let ((.def_17 (= parameter_move_topos@1 4.0))) (let ((.def_18 (= parameter_move_topos@1 3.0))) (let ((.def_19 (= parameter_move_topos@1 2.0))) (let ((.def_20 (= parameter_move_topos@1 1.0))) (let ((.def_21 (or .def_20 .def_19 .def_18 .def_17 .def_16))) (let ((.def_22 (= parameter_load_r@1 0.0))) (let ((.def_23 (= parameter_unload_at_depot_pallet@1 6.0))) (let ((.def_24 (= parameter_load_pallet@1 6.0))) (let ((.def_25 (= parameter_load_pos@1 5.0))) (let ((.def_26 (= parameter_load_pos@1 4.0))) (let ((.def_27 (= parameter_load_pos@1 3.0))) (let ((.def_28 (= parameter_load_pos@1 2.0))) (let ((.def_29 (= parameter_load_pos@1 1.0))) (let ((.def_30 (or .def_29 .def_28 .def_27 .def_26 .def_25))) (let ((.def_31 (= parameter_unload_at_depot_r@1 0.0))) (let ((.def_32 (= parameter_load_t@1 7.0))) (let ((.def_33 (= parameter_unload_at_depot_pos@1 5.0))) (let ((.def_34 (= parameter_unload_at_depot_pos@1 4.0))) (let ((.def_35 (= parameter_unload_at_depot_pos@1 3.0))) (let ((.def_36 (= parameter_unload_at_depot_pos@1 2.0))) (let ((.def_37 (= parameter_unload_at_depot_pos@1 1.0))) (let ((.def_38 (or .def_37 .def_36 .def_35 .def_34 .def_33))) (let ((.def_39 (<= fluent_battery_level_r0@1 100.0))) (let ((.def_40 (<= 0.0 fluent_battery_level_r0@1))) (let ((.def_41 (= parameter_load_at_depot_pallet@1 6.0))) (let ((.def_42 (= parameter_load_at_depot_r@1 0.0))) (let ((.def_43 (= parameter_load_at_depot_pos@1 5.0))) (let ((.def_44 (= parameter_load_at_depot_pos@1 4.0))) (let ((.def_45 (= parameter_load_at_depot_pos@1 3.0))) (let ((.def_46 (= parameter_load_at_depot_pos@1 2.0))) (let ((.def_47 (= parameter_load_at_depot_pos@1 1.0))) (let ((.def_48 (or .def_47 .def_46 .def_45 .def_44 .def_43))) (let ((.def_49 (and act_move@1 true .def_9))) (let ((.def_50 (= fluent_battery_level_r0@0 fluent_battery_level_r0@1))) (let ((.def_51 (not .def_50))) (let ((.def_52 (=> .def_51 .def_49))) (let ((.def_53 (and act_make_treatment@1 true .def_7 .def_0))) (let ((.def_54 (and act_unload_at_depot@1 true .def_23 .def_33))) (let ((.def_55 (and .def_54 .def_53))) (let ((.def_56 (not .def_55))) (let ((.def_57 (and act_load_at_depot@1 true .def_41 .def_43))) (let ((.def_58 (and .def_57 .def_53))) (let ((.def_59 (not .def_58))) (let ((.def_60 (and .def_57 .def_54))) (let ((.def_61 (not .def_60))) (let ((.def_62 (and act_load@1 true .def_24 .def_25))) (let ((.def_63 (and .def_62 .def_53))) (let ((.def_64 (not .def_63))) (let ((.def_65 (and .def_62 .def_54))) (let ((.def_66 (not .def_65))) (let ((.def_67 (and .def_62 .def_57))) (let ((.def_68 (not .def_67))) (let ((.def_69 (or .def_62 .def_57 .def_54 .def_53))) (let ((.def_70 (= fluent_pallet_at_plt0_p4@0 fluent_pallet_at_plt0_p4@1))) (let ((.def_71 (not .def_70))) (let ((.def_72 (=> .def_71 .def_69))) (let ((.def_73 (and act_make_treatment@1 true .def_7 .def_1))) (let ((.def_74 (and act_unload_at_depot@1 true .def_23 .def_34))) (let ((.def_75 (and .def_74 .def_73))) (let ((.def_76 (not .def_75))) (let ((.def_77 (and act_load_at_depot@1 true .def_41 .def_44))) (let ((.def_78 (and .def_77 .def_73))) (let ((.def_79 (not .def_78))) (let ((.def_80 (and .def_77 .def_74))) (let ((.def_81 (not .def_80))) (let ((.def_82 (and act_load@1 true .def_24 .def_26))) (let ((.def_83 (and .def_82 .def_73))) (let ((.def_84 (not .def_83))) (let ((.def_85 (and .def_82 .def_74))) (let ((.def_86 (not .def_85))) (let ((.def_87 (and .def_82 .def_77))) (let ((.def_88 (not .def_87))) (let ((.def_89 (or .def_82 .def_77 .def_74 .def_73))) (let ((.def_90 (= fluent_pallet_at_plt0_p3@0 fluent_pallet_at_plt0_p3@1))) (let ((.def_91 (not .def_90))) (let ((.def_92 (=> .def_91 .def_89))) (let ((.def_93 (and act_make_treatment@1 true .def_7 .def_2))) (let ((.def_94 (and act_unload_at_depot@1 true .def_23 .def_35))) (let ((.def_95 (and .def_94 .def_93))) (let ((.def_96 (not .def_95))) (let ((.def_97 (and act_load_at_depot@1 true .def_41 .def_45))) (let ((.def_98 (and .def_97 .def_93))) (let ((.def_99 (not .def_98))) (let ((.def_100 (and .def_97 .def_94))) (let ((.def_101 (not .def_100))) (let ((.def_102 (and act_load@1 true .def_24 .def_27))) (let ((.def_103 (and .def_102 .def_93))) (let ((.def_104 (not .def_103))) (let ((.def_105 (and .def_102 .def_94))) (let ((.def_106 (not .def_105))) (let ((.def_107 (and .def_102 .def_97))) (let ((.def_108 (not .def_107))) (let ((.def_109 (or .def_102 .def_97 .def_94 .def_93))) (let ((.def_110 (= fluent_pallet_at_plt0_p2@0 fluent_pallet_at_plt0_p2@1))) (let ((.def_111 (not .def_110))) (let ((.def_112 (=> .def_111 .def_109))) (let ((.def_113 (and act_make_treatment@1 true .def_7 .def_3))) (let ((.def_114 (and act_unload_at_depot@1 true .def_23 .def_36))) (let ((.def_115 (and .def_114 .def_113))) (let ((.def_116 (not .def_115))) (let ((.def_117 (and act_load_at_depot@1 true .def_41 .def_46))) (let ((.def_118 (and .def_117 .def_113))) (let ((.def_119 (not .def_118))) (let ((.def_120 (and .def_117 .def_114))) (let ((.def_121 (not .def_120))) (let ((.def_122 (and act_load@1 true .def_24 .def_28))) (let ((.def_123 (and .def_122 .def_113))) (let ((.def_124 (not .def_123))) (let ((.def_125 (and .def_122 .def_114))) (let ((.def_126 (not .def_125))) (let ((.def_127 (and .def_122 .def_117))) (let ((.def_128 (not .def_127))) (let ((.def_129 (or .def_122 .def_117 .def_114 .def_113))) (let ((.def_130 (= fluent_pallet_at_plt0_p1@0 fluent_pallet_at_plt0_p1@1))) (let ((.def_131 (not .def_130))) (let ((.def_132 (=> .def_131 .def_129))) (let ((.def_133 (and act_make_treatment@1 true .def_7 .def_4))) (let ((.def_134 (and act_unload_at_depot@1 true .def_23 .def_37))) (let ((.def_135 (and .def_134 .def_133))) (let ((.def_136 (not .def_135))) (let ((.def_137 (and act_load_at_depot@1 true .def_41 .def_47))) (let ((.def_138 (and .def_137 .def_133))) (let ((.def_139 (not .def_138))) (let ((.def_140 (and .def_137 .def_134))) (let ((.def_141 (not .def_140))) (let ((.def_142 (and act_load@1 true .def_24 .def_29))) (let ((.def_143 (and .def_142 .def_133))) (let ((.def_144 (not .def_143))) (let ((.def_145 (and .def_142 .def_134))) (let ((.def_146 (not .def_145))) (let ((.def_147 (and .def_142 .def_137))) (let ((.def_148 (not .def_147))) (let ((.def_149 (or .def_142 .def_137 .def_134 .def_133))) (let ((.def_150 (= fluent_pallet_at_plt0_p0@0 fluent_pallet_at_plt0_p0@1))) (let ((.def_151 (not .def_150))) (let ((.def_152 (=> .def_151 .def_149))) (let ((.def_153 (and act_load@1 true .def_24 .def_32))) (let ((.def_154 (= fluent_treated_plt0_t0@0 fluent_treated_plt0_t0@1))) (let ((.def_155 (not .def_154))) (let ((.def_156 (=> .def_155 .def_153))) (let ((.def_157 (and act_make_treatment@1 true .def_0))) (let ((.def_158 (and act_load@1 true .def_25))) (let ((.def_159 (and .def_158 .def_157))) (let ((.def_160 (not .def_159))) (let ((.def_161 (or .def_158 .def_157))) (let ((.def_162 (= fluent_position_free_p4@0 fluent_position_free_p4@1))) (let ((.def_163 (not .def_162))) (let ((.def_164 (=> .def_163 .def_161))) (let ((.def_165 (and act_make_treatment@1 true .def_1))) (let ((.def_166 (and act_load@1 true .def_26))) (let ((.def_167 (and .def_166 .def_165))) (let ((.def_168 (not .def_167))) (let ((.def_169 (or .def_166 .def_165))) (let ((.def_170 (= fluent_position_free_p3@0 fluent_position_free_p3@1))) (let ((.def_171 (not .def_170))) (let ((.def_172 (=> .def_171 .def_169))) (let ((.def_173 (and act_make_treatment@1 true .def_2))) (let ((.def_174 (and act_load@1 true .def_27))) (let ((.def_175 (and .def_174 .def_173))) (let ((.def_176 (not .def_175))) (let ((.def_177 (or .def_174 .def_173))) (let ((.def_178 (= fluent_position_free_p2@0 fluent_position_free_p2@1))) (let ((.def_179 (not .def_178))) (let ((.def_180 (=> .def_179 .def_177))) (let ((.def_181 (and act_make_treatment@1 true .def_3))) (let ((.def_182 (and act_load@1 true .def_28))) (let ((.def_183 (and .def_182 .def_181))) (let ((.def_184 (not .def_183))) (let ((.def_185 (or .def_182 .def_181))) (let ((.def_186 (= fluent_position_free_p1@0 fluent_position_free_p1@1))) (let ((.def_187 (not .def_186))) (let ((.def_188 (=> .def_187 .def_185))) (let ((.def_189 (and act_make_treatment@1 true .def_4))) (let ((.def_190 (and act_load@1 true .def_29))) (let ((.def_191 (and .def_190 .def_189))) (let ((.def_192 (not .def_191))) (let ((.def_193 (or .def_190 .def_189))) (let ((.def_194 (= fluent_position_free_p0@0 fluent_position_free_p0@1))) (let ((.def_195 (not .def_194))) (let ((.def_196 (=> .def_195 .def_193))) (let ((.def_197 (+ t@1 2.0))) (let ((.def_198 (= t@1 .def_197))) (let ((.def_199 (and act_make_treatment@1 true .def_198 .def_7 .def_0 .def_8))) (let ((.def_200 (and act_load@1 true .def_24 .def_25 .def_32))) (let ((.def_201 (and .def_200 .def_199))) (let ((.def_202 (not .def_201))) (let ((.def_203 (or .def_200 .def_199))) (let ((.def_204 (= fluent_ready_plt0_p4_t0@0 fluent_ready_plt0_p4_t0@1))) (let ((.def_205 (not .def_204))) (let ((.def_206 (=> .def_205 .def_203))) (let ((.def_207 (and act_make_treatment@1 true .def_198 .def_7 .def_1 .def_8))) (let ((.def_208 (and act_load@1 true .def_24 .def_26 .def_32))) (let ((.def_209 (and .def_208 .def_207))) (let ((.def_210 (not .def_209))) (let ((.def_211 (or .def_208 .def_207))) (let ((.def_212 (= fluent_ready_plt0_p3_t0@0 fluent_ready_plt0_p3_t0@1))) (let ((.def_213 (not .def_212))) (let ((.def_214 (=> .def_213 .def_211))) (let ((.def_215 (and act_make_treatment@1 true .def_198 .def_7 .def_2 .def_8))) (let ((.def_216 (and act_load@1 true .def_24 .def_27 .def_32))) (let ((.def_217 (and .def_216 .def_215))) (let ((.def_218 (not .def_217))) (let ((.def_219 (or .def_216 .def_215))) (let ((.def_220 (= fluent_ready_plt0_p2_t0@0 fluent_ready_plt0_p2_t0@1))) (let ((.def_221 (not .def_220))) (let ((.def_222 (=> .def_221 .def_219))) (let ((.def_223 (and act_make_treatment@1 true .def_198 .def_7 .def_3 .def_8))) (let ((.def_224 (and act_load@1 true .def_24 .def_28 .def_32))) (let ((.def_225 (and .def_224 .def_223))) (let ((.def_226 (not .def_225))) (let ((.def_227 (or .def_224 .def_223))) (let ((.def_228 (= fluent_ready_plt0_p1_t0@0 fluent_ready_plt0_p1_t0@1))) (let ((.def_229 (not .def_228))) (let ((.def_230 (=> .def_229 .def_227))) (let ((.def_231 (and act_make_treatment@1 true .def_198 .def_7 .def_4 .def_8))) (let ((.def_232 (and act_load@1 true .def_24 .def_29 .def_32))) (let ((.def_233 (and .def_232 .def_231))) (let ((.def_234 (not .def_233))) (let ((.def_235 (or .def_232 .def_231))) (let ((.def_236 (= fluent_ready_plt0_p0_t0@0 fluent_ready_plt0_p0_t0@1))) (let ((.def_237 (not .def_236))) (let ((.def_238 (=> .def_237 .def_235))) (let ((.def_239 (and act_make_treatment@1 true .def_6 .def_7))) (let ((.def_240 (and act_unload_at_depot@1 true .def_31 .def_23))) (let ((.def_241 (and .def_240 .def_239))) (let ((.def_242 (not .def_241))) (let ((.def_243 (and act_load_at_depot@1 true .def_42 .def_41))) (let ((.def_244 (and .def_243 .def_239))) (let ((.def_245 (not .def_244))) (let ((.def_246 (and .def_243 .def_240))) (let ((.def_247 (not .def_246))) (let ((.def_248 (and act_load@1 true .def_22 .def_24))) (let ((.def_249 (and .def_248 .def_239))) (let ((.def_250 (not .def_249))) (let ((.def_251 (and .def_248 .def_240))) (let ((.def_252 (not .def_251))) (let ((.def_253 (and .def_248 .def_243))) (let ((.def_254 (not .def_253))) (let ((.def_255 (or .def_248 .def_243 .def_240 .def_239))) (let ((.def_256 (= fluent_robot_has_r0_plt0@0 fluent_robot_has_r0_plt0@1))) (let ((.def_257 (not .def_256))) (let ((.def_258 (=> .def_257 .def_255))) (let ((.def_259 (and act_make_treatment@1 true .def_6))) (let ((.def_260 (and act_unload_at_depot@1 true .def_31))) (let ((.def_261 (and .def_260 .def_259))) (let ((.def_262 (not .def_261))) (let ((.def_263 (and act_load_at_depot@1 true .def_42))) (let ((.def_264 (and .def_263 .def_259))) (let ((.def_265 (not .def_264))) (let ((.def_266 (and .def_263 .def_260))) (let ((.def_267 (not .def_266))) (let ((.def_268 (and act_load@1 true .def_22))) (let ((.def_269 (and .def_268 .def_259))) (let ((.def_270 (not .def_269))) (let ((.def_271 (and .def_268 .def_260))) (let ((.def_272 (not .def_271))) (let ((.def_273 (and .def_268 .def_263))) (let ((.def_274 (not .def_273))) (let ((.def_275 (or .def_268 .def_263 .def_260 .def_259))) (let ((.def_276 (= fluent_robot_free_r0@0 fluent_robot_free_r0@1))) (let ((.def_277 (not .def_276))) (let ((.def_278 (=> .def_277 .def_275))) (let ((.def_279 (and act_move@1 true .def_9 .def_10))) (let ((.def_280 (and act_move@1 true .def_9 .def_16))) (let ((.def_281 (and .def_280 .def_279))) (let ((.def_282 (not .def_281))) (let ((.def_283 (or .def_280 .def_279))) (let ((.def_284 (= fluent_robot_at_r0_p4@0 fluent_robot_at_r0_p4@1))) (let ((.def_285 (not .def_284))) (let ((.def_286 (=> .def_285 .def_283))) (let ((.def_287 (and act_move@1 true .def_9 .def_11))) (let ((.def_288 (and act_move@1 true .def_9 .def_17))) (let ((.def_289 (and .def_288 .def_287))) (let ((.def_290 (not .def_289))) (let ((.def_291 (or .def_288 .def_287))) (let ((.def_292 (= fluent_robot_at_r0_p3@0 fluent_robot_at_r0_p3@1))) (let ((.def_293 (not .def_292))) (let ((.def_294 (=> .def_293 .def_291))) (let ((.def_295 (and act_move@1 true .def_9 .def_12))) (let ((.def_296 (and act_move@1 true .def_9 .def_18))) (let ((.def_297 (and .def_296 .def_295))) (let ((.def_298 (not .def_297))) (let ((.def_299 (or .def_296 .def_295))) (let ((.def_300 (= fluent_robot_at_r0_p2@0 fluent_robot_at_r0_p2@1))) (let ((.def_301 (not .def_300))) (let ((.def_302 (=> .def_301 .def_299))) (let ((.def_303 (and act_move@1 true .def_9 .def_13))) (let ((.def_304 (and act_move@1 true .def_9 .def_19))) (let ((.def_305 (and .def_304 .def_303))) (let ((.def_306 (not .def_305))) (let ((.def_307 (or .def_304 .def_303))) (let ((.def_308 (= fluent_robot_at_r0_p1@0 fluent_robot_at_r0_p1@1))) (let ((.def_309 (not .def_308))) (let ((.def_310 (=> .def_309 .def_307))) (let ((.def_311 (and act_move@1 true .def_9 .def_14))) (let ((.def_312 (and act_move@1 true .def_9 .def_20))) (let ((.def_313 (and .def_312 .def_311))) (let ((.def_314 (not .def_313))) (let ((.def_315 (or .def_312 .def_311))) (let ((.def_316 (= fluent_robot_at_r0_p0@0 fluent_robot_at_r0_p0@1))) (let ((.def_317 (not .def_316))) (let ((.def_318 (=> .def_317 .def_315))) (let ((.def_319 (and .def_318 .def_314 .def_310 .def_306 .def_302 .def_298 .def_294 .def_290 .def_286 .def_282 .def_278 .def_274 .def_272 .def_270 .def_267 .def_265 .def_262 .def_258 .def_254 .def_252 .def_250 .def_247 .def_245 .def_242 .def_238 .def_234 .def_230 .def_226 .def_222 .def_218 .def_214 .def_210 .def_206 .def_202 .def_196 .def_192 .def_188 .def_184 .def_180 .def_176 .def_172 .def_168 .def_164 .def_160 .def_156 .def_152 .def_148 .def_146 .def_144 .def_141 .def_139 .def_136 .def_132 .def_128 .def_126 .def_124 .def_121 .def_119 .def_116 .def_112 .def_108 .def_106 .def_104 .def_101 .def_99 .def_96 .def_92 .def_88 .def_86 .def_84 .def_81 .def_79 .def_76 .def_72 .def_68 .def_66 .def_64 .def_61 .def_59 .def_56 .def_52))) (let ((.def_320 (= t@1 t@1))) (let ((.def_321 (and act_move@1 act_load@1 .def_320))) (let ((.def_322 (not .def_321))) (let ((.def_323 (and act_move@1 act_unload_at_depot@1 .def_320))) (let ((.def_324 (not .def_323))) (let ((.def_325 (and act_move@1 act_load_at_depot@1 .def_320))) (let ((.def_326 (not .def_325))) (let ((.def_327 (+ t@1 dur_make_treatment@1))) (let ((.def_328 (= .def_327 t@1))) (let ((.def_329 (and act_make_treatment@1 act_load@1 .def_328))) (let ((.def_330 (not .def_329))) (let ((.def_331 (and act_make_treatment@1 act_move@1 .def_320))) (let ((.def_332 (not .def_331))) (let ((.def_333 (and act_load@1 act_load_at_depot@1 .def_320))) (let ((.def_334 (not .def_333))) (let ((.def_335 (and act_make_treatment@1 act_unload_at_depot@1 .def_320))) (let ((.def_336 (not .def_335))) (let ((.def_337 (and act_load_at_depot@1 act_unload_at_depot@1 .def_320))) (let ((.def_338 (not .def_337))) (let ((.def_339 (and act_make_treatment@1 act_load@1 .def_320))) (let ((.def_340 (not .def_339))) (let ((.def_341 (and act_load@1 act_unload_at_depot@1 .def_320))) (let ((.def_342 (not .def_341))) (let ((.def_343 (and act_load@1 act_make_treatment@1 .def_198))) (let ((.def_344 (not .def_343))) (let ((.def_345 (and act_make_treatment@1 act_load_at_depot@1 .def_320))) (let ((.def_346 (not .def_345))) (let ((.def_347 (and .def_346 .def_344 .def_342 .def_340 .def_338 .def_336 .def_334 .def_332 .def_330 .def_326 .def_324 .def_322))) (let ((.def_348 (<= 0.0 t@1))) (let ((.def_349 (and .def_7 .def_3 .def_8))) (let ((.def_350 (ite .def_349 fluent_ready_plt0_p1_t0@1 fluent_ready_plt0_p0_t0@1))) (let ((.def_351 (and .def_7 .def_2 .def_8))) (let ((.def_352 (ite .def_351 fluent_ready_plt0_p2_t0@1 .def_350))) (let ((.def_353 (and .def_7 .def_1 .def_8))) (let ((.def_354 (ite .def_353 fluent_ready_plt0_p3_t0@1 .def_352))) (let ((.def_355 (and .def_7 .def_0 .def_8))) (let ((.def_356 (ite .def_355 fluent_ready_plt0_p4_t0@1 .def_354))) (let ((.def_357 (= .def_356 true))) (let ((.def_358 (=> true .def_357))) (let ((.def_359 (and .def_198 .def_358))) (let ((.def_360 (= fluent_robot_free_r0@1 true))) (let ((.def_361 (=> true .def_360))) (let ((.def_362 (and .def_7 .def_3))) (let ((.def_363 (ite .def_362 fluent_pallet_at_plt0_p1@1 fluent_pallet_at_plt0_p0@1))) (let ((.def_364 (and .def_7 .def_2))) (let ((.def_365 (ite .def_364 fluent_pallet_at_plt0_p2@1 .def_363))) (let ((.def_366 (and .def_7 .def_1))) (let ((.def_367 (ite .def_366 fluent_pallet_at_plt0_p3@1 .def_365))) (let ((.def_368 (and .def_7 .def_0))) (let ((.def_369 (ite .def_368 fluent_pallet_at_plt0_p4@1 .def_367))) (let ((.def_370 (= .def_369 true))) (let ((.def_371 (=> true .def_370))) (let ((.def_372 (= fluent_robot_has_r0_plt0@1 false))) (let ((.def_373 (=> true .def_372))) (let ((.def_374 (ite .def_3 fluent_position_free_p1@1 fluent_position_free_p0@1))) (let ((.def_375 (ite .def_2 fluent_position_free_p2@1 .def_374))) (let ((.def_376 (ite .def_1 fluent_position_free_p3@1 .def_375))) (let ((.def_377 (ite .def_0 fluent_position_free_p4@1 .def_376))) (let ((.def_378 (= .def_377 false))) (let ((.def_379 (=> true .def_378))) (let ((.def_380 (and .def_320 .def_379 .def_373 .def_371 .def_361))) (let ((.def_381 (ite .def_3 fluent_position_free_p1@0 fluent_position_free_p0@0))) (let ((.def_382 (ite .def_2 fluent_position_free_p2@0 .def_381))) (let ((.def_383 (ite .def_1 fluent_position_free_p3@0 .def_382))) (let ((.def_384 (ite .def_0 fluent_position_free_p4@0 .def_383))) (let ((.def_385 (and fluent_treated_plt0_t0@0 .def_384))) (let ((.def_386 (<= .def_327 t@1))) (let ((.def_387 (< (- 1.0) .def_327))) (let ((.def_388 (and .def_387 .def_386))) (let ((.def_389 (=> .def_388 .def_385))) (let ((.def_390 (not fluent_treated_plt0_t0@0))) (let ((.def_391 (and .def_6 .def_3))) (let ((.def_392 (ite .def_391 fluent_robot_at_r0_p1@0 fluent_robot_at_r0_p0@0))) (let ((.def_393 (and .def_6 .def_2))) (let ((.def_394 (ite .def_393 fluent_robot_at_r0_p2@0 .def_392))) (let ((.def_395 (and .def_6 .def_1))) (let ((.def_396 (ite .def_395 fluent_robot_at_r0_p3@0 .def_394))) (let ((.def_397 (and .def_6 .def_0))) (let ((.def_398 (ite .def_397 fluent_robot_at_r0_p4@0 .def_396))) (let ((.def_399 (and .def_3 .def_8))) (let ((.def_400 (ite .def_399 false true))) (let ((.def_401 (and .def_2 .def_8))) (let ((.def_402 (ite .def_401 false .def_400))) (let ((.def_403 (and .def_1 .def_8))) (let ((.def_404 (ite .def_403 false .def_402))) (let ((.def_405 (and .def_0 .def_8))) (let ((.def_406 (ite .def_405 false .def_404))) (let ((.def_407 (and .def_406 .def_384 .def_398 fluent_robot_has_r0_plt0@0 .def_390))) (let ((.def_408 (<= t@1 t@1))) (let ((.def_409 (< (- 1.0) t@1))) (let ((.def_410 (and .def_409 .def_408))) (let ((.def_411 (=> .def_410 .def_407))) (let ((.def_412 (<= dur_make_treatment@1 4.0))) (let ((.def_413 (<= 4.0 dur_make_treatment@1))) (let ((.def_414 (and .def_413 .def_412))) (let ((.def_415 (and .def_414 .def_386 .def_411 .def_389 .def_380 .def_359))) (let ((.def_416 (=> act_make_treatment@1 .def_415))) (let ((.def_417 (and .def_23 .def_36))) (let ((.def_418 (ite .def_417 fluent_pallet_at_plt0_p1@1 fluent_pallet_at_plt0_p0@1))) (let ((.def_419 (and .def_23 .def_35))) (let ((.def_420 (ite .def_419 fluent_pallet_at_plt0_p2@1 .def_418))) (let ((.def_421 (and .def_23 .def_34))) (let ((.def_422 (ite .def_421 fluent_pallet_at_plt0_p3@1 .def_420))) (let ((.def_423 (and .def_23 .def_33))) (let ((.def_424 (ite .def_423 fluent_pallet_at_plt0_p4@1 .def_422))) (let ((.def_425 (= .def_424 true))) (let ((.def_426 (=> true .def_425))) (let ((.def_427 (and .def_31 .def_36))) (let ((.def_428 (ite .def_427 fluent_robot_at_r0_p1@0 fluent_robot_at_r0_p0@0))) (let ((.def_429 (and .def_31 .def_35))) (let ((.def_430 (ite .def_429 fluent_robot_at_r0_p2@0 .def_428))) (let ((.def_431 (and .def_31 .def_34))) (let ((.def_432 (ite .def_431 fluent_robot_at_r0_p3@0 .def_430))) (let ((.def_433 (and .def_31 .def_33))) (let ((.def_434 (ite .def_433 fluent_robot_at_r0_p4@0 .def_432))) (let ((.def_435 (ite .def_36 false false))) (let ((.def_436 (ite .def_35 false .def_435))) (let ((.def_437 (ite .def_34 false .def_436))) (let ((.def_438 (ite .def_33 true .def_437))) (let ((.def_439 (and .def_438 .def_434 fluent_robot_has_r0_plt0@0 .def_426 .def_361 .def_373))) (let ((.def_440 (=> act_unload_at_depot@1 .def_439))) (let ((.def_441 (and .def_41 .def_46))) (let ((.def_442 (ite .def_441 fluent_pallet_at_plt0_p1@1 fluent_pallet_at_plt0_p0@1))) (let ((.def_443 (and .def_41 .def_45))) (let ((.def_444 (ite .def_443 fluent_pallet_at_plt0_p2@1 .def_442))) (let ((.def_445 (and .def_41 .def_44))) (let ((.def_446 (ite .def_445 fluent_pallet_at_plt0_p3@1 .def_444))) (let ((.def_447 (and .def_41 .def_43))) (let ((.def_448 (ite .def_447 fluent_pallet_at_plt0_p4@1 .def_446))) (let ((.def_449 (= .def_448 false))) (let ((.def_450 (=> true .def_449))) (let ((.def_451 (= fluent_robot_has_r0_plt0@1 true))) (let ((.def_452 (=> true .def_451))) (let ((.def_453 (= fluent_robot_free_r0@1 false))) (let ((.def_454 (=> true .def_453))) (let ((.def_455 (ite .def_441 fluent_pallet_at_plt0_p1@0 fluent_pallet_at_plt0_p0@0))) (let ((.def_456 (ite .def_443 fluent_pallet_at_plt0_p2@0 .def_455))) (let ((.def_457 (ite .def_445 fluent_pallet_at_plt0_p3@0 .def_456))) (let ((.def_458 (ite .def_447 fluent_pallet_at_plt0_p4@0 .def_457))) (let ((.def_459 (and .def_42 .def_46))) (let ((.def_460 (ite .def_459 fluent_robot_at_r0_p1@0 fluent_robot_at_r0_p0@0))) (let ((.def_461 (and .def_42 .def_45))) (let ((.def_462 (ite .def_461 fluent_robot_at_r0_p2@0 .def_460))) (let ((.def_463 (and .def_42 .def_44))) (let ((.def_464 (ite .def_463 fluent_robot_at_r0_p3@0 .def_462))) (let ((.def_465 (and .def_42 .def_43))) (let ((.def_466 (ite .def_465 fluent_robot_at_r0_p4@0 .def_464))) (let ((.def_467 (ite .def_46 false false))) (let ((.def_468 (ite .def_45 false .def_467))) (let ((.def_469 (ite .def_44 false .def_468))) (let ((.def_470 (ite .def_43 true .def_469))) (let ((.def_471 (and .def_470 .def_466 fluent_robot_free_r0@0 .def_458 .def_454 .def_452 .def_450))) (let ((.def_472 (=> act_load_at_depot@1 .def_471))) (let ((.def_473 (ite .def_28 fluent_position_free_p1@1 fluent_position_free_p0@1))) (let ((.def_474 (ite .def_27 fluent_position_free_p2@1 .def_473))) (let ((.def_475 (ite .def_26 fluent_position_free_p3@1 .def_474))) (let ((.def_476 (ite .def_25 fluent_position_free_p4@1 .def_475))) (let ((.def_477 (= .def_476 true))) (let ((.def_478 (=> true .def_477))) (let ((.def_479 (= fluent_treated_plt0_t0@1 true))) (let ((.def_480 (=> true .def_479))) (let ((.def_481 (and .def_24 .def_28))) (let ((.def_482 (ite .def_481 fluent_pallet_at_plt0_p1@1 fluent_pallet_at_plt0_p0@1))) (let ((.def_483 (and .def_24 .def_27))) (let ((.def_484 (ite .def_483 fluent_pallet_at_plt0_p2@1 .def_482))) (let ((.def_485 (and .def_24 .def_26))) (let ((.def_486 (ite .def_485 fluent_pallet_at_plt0_p3@1 .def_484))) (let ((.def_487 (and .def_24 .def_25))) (let ((.def_488 (ite .def_487 fluent_pallet_at_plt0_p4@1 .def_486))) (let ((.def_489 (= .def_488 false))) (let ((.def_490 (=> true .def_489))) (let ((.def_491 (and .def_24 .def_28 .def_32))) (let ((.def_492 (ite .def_491 fluent_ready_plt0_p1_t0@1 fluent_ready_plt0_p0_t0@1))) (let ((.def_493 (and .def_24 .def_27 .def_32))) (let ((.def_494 (ite .def_493 fluent_ready_plt0_p2_t0@1 .def_492))) (let ((.def_495 (and .def_24 .def_26 .def_32))) (let ((.def_496 (ite .def_495 fluent_ready_plt0_p3_t0@1 .def_494))) (let ((.def_497 (and .def_24 .def_25 .def_32))) (let ((.def_498 (ite .def_497 fluent_ready_plt0_p4_t0@1 .def_496))) (let ((.def_499 (= .def_498 false))) (let ((.def_500 (=> true .def_499))) (let ((.def_501 (ite .def_481 fluent_pallet_at_plt0_p1@0 fluent_pallet_at_plt0_p0@0))) (let ((.def_502 (ite .def_483 fluent_pallet_at_plt0_p2@0 .def_501))) (let ((.def_503 (ite .def_485 fluent_pallet_at_plt0_p3@0 .def_502))) (let ((.def_504 (ite .def_487 fluent_pallet_at_plt0_p4@0 .def_503))) (let ((.def_505 (and .def_22 .def_28))) (let ((.def_506 (ite .def_505 fluent_robot_at_r0_p1@0 fluent_robot_at_r0_p0@0))) (let ((.def_507 (and .def_22 .def_27))) (let ((.def_508 (ite .def_507 fluent_robot_at_r0_p2@0 .def_506))) (let ((.def_509 (and .def_22 .def_26))) (let ((.def_510 (ite .def_509 fluent_robot_at_r0_p3@0 .def_508))) (let ((.def_511 (and .def_22 .def_25))) (let ((.def_512 (ite .def_511 fluent_robot_at_r0_p4@0 .def_510))) (let ((.def_513 (ite .def_491 fluent_ready_plt0_p1_t0@0 fluent_ready_plt0_p0_t0@0))) (let ((.def_514 (ite .def_493 fluent_ready_plt0_p2_t0@0 .def_513))) (let ((.def_515 (ite .def_495 fluent_ready_plt0_p3_t0@0 .def_514))) (let ((.def_516 (ite .def_497 fluent_ready_plt0_p4_t0@0 .def_515))) (let ((.def_517 (and .def_516 .def_512 fluent_robot_free_r0@0 .def_504 .def_454 .def_500 .def_490 .def_452 .def_480 .def_478))) (let ((.def_518 (=> act_load@1 .def_517))) (let ((.def_519 (and .def_13 .def_20))) (let ((.def_520 (ite .def_519 1.0 0.0))) (let ((.def_521 (and .def_12 .def_20))) (let ((.def_522 (ite .def_521 2.0 .def_520))) (let ((.def_523 (and .def_11 .def_20))) (let ((.def_524 (ite .def_523 3.0 .def_522))) (let ((.def_525 (and .def_10 .def_20))) (let ((.def_526 (ite .def_525 4.0 .def_524))) (let ((.def_527 (and .def_14 .def_19))) (let ((.def_528 (ite .def_527 1.0 .def_526))) (let ((.def_529 (and .def_13 .def_19))) (let ((.def_530 (ite .def_529 0.0 .def_528))) (let ((.def_531 (and .def_12 .def_19))) (let ((.def_532 (ite .def_531 1.0 .def_530))) (let ((.def_533 (and .def_11 .def_19))) (let ((.def_534 (ite .def_533 2.0 .def_532))) (let ((.def_535 (and .def_10 .def_19))) (let ((.def_536 (ite .def_535 3.0 .def_534))) (let ((.def_537 (and .def_14 .def_18))) (let ((.def_538 (ite .def_537 2.0 .def_536))) (let ((.def_539 (and .def_13 .def_18))) (let ((.def_540 (ite .def_539 1.0 .def_538))) (let ((.def_541 (and .def_12 .def_18))) (let ((.def_542 (ite .def_541 0.0 .def_540))) (let ((.def_543 (and .def_11 .def_18))) (let ((.def_544 (ite .def_543 1.0 .def_542))) (let ((.def_545 (and .def_10 .def_18))) (let ((.def_546 (ite .def_545 2.0 .def_544))) (let ((.def_547 (and .def_14 .def_17))) (let ((.def_548 (ite .def_547 3.0 .def_546))) (let ((.def_549 (and .def_13 .def_17))) (let ((.def_550 (ite .def_549 2.0 .def_548))) (let ((.def_551 (and .def_12 .def_17))) (let ((.def_552 (ite .def_551 1.0 .def_550))) (let ((.def_553 (and .def_11 .def_17))) (let ((.def_554 (ite .def_553 0.0 .def_552))) (let ((.def_555 (and .def_10 .def_17))) (let ((.def_556 (ite .def_555 1.0 .def_554))) (let ((.def_557 (and .def_14 .def_16))) (let ((.def_558 (ite .def_557 4.0 .def_556))) (let ((.def_559 (and .def_13 .def_16))) (let ((.def_560 (ite .def_559 3.0 .def_558))) (let ((.def_561 (and .def_12 .def_16))) (let ((.def_562 (ite .def_561 2.0 .def_560))) (let ((.def_563 (and .def_11 .def_16))) (let ((.def_564 (ite .def_563 1.0 .def_562))) (let ((.def_565 (and .def_10 .def_16))) (let ((.def_566 (ite .def_565 0.0 .def_564))) (let ((.def_567 (- fluent_battery_level_r0@0 .def_566))) (let ((.def_568 (= fluent_battery_level_r0@1 .def_567))) (let ((.def_569 (=> true .def_568))) (let ((.def_570 (and .def_9 .def_13))) (let ((.def_571 (ite .def_570 fluent_robot_at_r0_p1@1 fluent_robot_at_r0_p0@1))) (let ((.def_572 (and .def_9 .def_12))) (let ((.def_573 (ite .def_572 fluent_robot_at_r0_p2@1 .def_571))) (let ((.def_574 (and .def_9 .def_11))) (let ((.def_575 (ite .def_574 fluent_robot_at_r0_p3@1 .def_573))) (let ((.def_576 (and .def_9 .def_10))) (let ((.def_577 (ite .def_576 fluent_robot_at_r0_p4@1 .def_575))) (let ((.def_578 (= .def_577 false))) (let ((.def_579 (=> true .def_578))) (let ((.def_580 (and .def_9 .def_19))) (let ((.def_581 (ite .def_580 fluent_robot_at_r0_p1@1 fluent_robot_at_r0_p0@1))) (let ((.def_582 (and .def_9 .def_18))) (let ((.def_583 (ite .def_582 fluent_robot_at_r0_p2@1 .def_581))) (let ((.def_584 (and .def_9 .def_17))) (let ((.def_585 (ite .def_584 fluent_robot_at_r0_p3@1 .def_583))) (let ((.def_586 (and .def_9 .def_16))) (let ((.def_587 (ite .def_586 fluent_robot_at_r0_p4@1 .def_585))) (let ((.def_588 (= .def_587 true))) (let ((.def_589 (=> true .def_588))) (let ((.def_590 (<= .def_566 fluent_battery_level_r0@0))) (let ((.def_591 (ite .def_570 fluent_robot_at_r0_p1@0 fluent_robot_at_r0_p0@0))) (let ((.def_592 (ite .def_572 fluent_robot_at_r0_p2@0 .def_591))) (let ((.def_593 (ite .def_574 fluent_robot_at_r0_p3@0 .def_592))) (let ((.def_594 (ite .def_576 fluent_robot_at_r0_p4@0 .def_593))) (let ((.def_595 (= parameter_move_frompos@1 parameter_move_topos@1))) (let ((.def_596 (not .def_595))) (let ((.def_597 (and .def_596 .def_594 .def_590 .def_589 .def_579 .def_569))) (let ((.def_598 (=> act_move@1 .def_597))) (let ((.def_599 (<= fluent_battery_level_r0@0 100.0))) (let ((.def_600 (<= 0.0 fluent_battery_level_r0@0))) (let ((.def_601 (= false false))) (let ((.def_602 (= fluent_pallet_at_plt0_p3@0 false))) (let ((.def_603 (= fluent_pallet_at_plt0_p2@0 false))) (let ((.def_604 (= fluent_pallet_at_plt0_p1@0 false))) (let ((.def_605 (= fluent_pallet_at_plt0_p0@0 false))) (let ((.def_606 (= fluent_treated_plt0_t0@0 false))) (let ((.def_607 (= fluent_ready_plt0_p4_t0@0 false))) (let ((.def_608 (= fluent_ready_plt0_p3_t0@0 false))) (let ((.def_609 (= fluent_ready_plt0_p2_t0@0 false))) (let ((.def_610 (= fluent_ready_plt0_p1_t0@0 false))) (let ((.def_611 (= fluent_ready_plt0_p0_t0@0 false))) (let ((.def_612 (= fluent_robot_has_r0_plt0@0 false))) (let ((.def_613 (= fluent_robot_at_r0_p3@0 false))) (let ((.def_614 (= fluent_robot_at_r0_p2@0 false))) (let ((.def_615 (= fluent_robot_at_r0_p1@0 false))) (let ((.def_616 (= fluent_robot_at_r0_p0@0 false))) (let ((.def_617 (= true true))) (let ((.def_618 (= fluent_position_free_p4@0 true))) (let ((.def_619 (= fluent_position_free_p3@0 true))) (let ((.def_620 (= fluent_position_free_p2@0 true))) (let ((.def_621 (= fluent_position_free_p1@0 true))) (let ((.def_622 (= fluent_position_free_p0@0 true))) (let ((.def_623 (= 0.0 0.0))) (let ((.def_624 (= 1.0 1.0))) (let ((.def_625 (= 2.0 2.0))) (let ((.def_626 (= 3.0 3.0))) (let ((.def_627 (= 4.0 4.0))) (let ((.def_628 (= fluent_battery_level_r0@0 10.0))) (let ((.def_629 (= fluent_pallet_at_plt0_p4@0 true))) (let ((.def_630 (= fluent_robot_free_r0@0 true))) (let ((.def_631 (= fluent_robot_at_r0_p4@0 true))) (let ((.def_632 (and .def_631 .def_630 .def_629 .def_628 .def_623 .def_624 .def_624 .def_625 .def_625 .def_626 .def_626 .def_627 .def_627 .def_623 .def_624 .def_624 .def_625 .def_625 .def_626 .def_626 .def_623 .def_624 .def_624 .def_625 .def_625 .def_623 .def_624 .def_624 .def_623 .def_617 .def_622 .def_621 .def_620 .def_619 .def_618 .def_617 .def_616 .def_615 .def_614 .def_613 .def_612 .def_611 .def_610 .def_609 .def_608 .def_607 .def_606 .def_605 .def_604 .def_603 .def_602 .def_601 .def_601 .def_601 .def_601 .def_601 .def_601 .def_601 .def_601 .def_600 .def_599))) (let ((.def_633 (and .def_632 .def_598 .def_518 .def_472 .def_440 .def_416 .def_348 .def_347 true .def_319 .def_48 .def_42 .def_41 .def_40 .def_39 .def_38 .def_32 .def_31 .def_30 .def_24 .def_23 .def_22 .def_21 .def_15 .def_9 .def_8 .def_7 .def_6 .def_5 true))) .def_633)))))))))))))))))))))))))))))))))))))))))))))))))))))))))))))))))))))))))))))))))))))))))))))))))))))))))))))))))))))))))))))))))))))))))))))))))))))))))))))))))))))))))))))))))))))))))))))))))))))))))))))))))))))))))))))))))))))))))))))))))))))))))))))))))))))))))))))))))))))))))))))))))))))))))))))))))))))))))))))))))))))))))))))))))))))))))))))))))))))))))))))))))))))))))))))))))))))))))))))))))))))))))))))))))))))))))))))))))))))))))))))))))))))))))))))))))))))))))))))))))))))))))))))))))))))))))))))))))))))))))))))))))))))))))))))))))))))))))))))))))))))))))))))))))))))))))))))))))))))))))))))))))))))))))))))))))))))))))))
(check-sat)


